p cnf 702 1993
-1 10 0 
1 482 0 
-79 -80 0 
-81 72 0 
-82 70 0 
-82 71 0 
-83 -84 0 
-84 -85 -91 0 
-84 85 91 0 
-85 -86 -87 0 
-85 86 87 0 
-87 -88 -90 0 
-87 88 90 0 
-88 -89 0 
-10 -11 12 0 
-10 11 372 0 
-90 79 0 
-90 81 0 
-91 92 95 0 
-92 93 94 0 
-93 77 0 
-93 78 0 
-94 82 0 
-94 78 0 
-95 82 0 
-95 77 0 
-96 -97 0 
-97 -98 -104 0 
-97 98 104 0 
-98 -99 -100 0 
-98 99 100 0 
-11 8 0 
-100 -101 -103 0 
-100 101 103 0 
-101 -102 0 
-103 88 0 
-103 90 0 
-104 105 108 0 
-105 106 107 0 
-106 86 0 
-106 87 0 
-107 87 0 
-107 91 0 
-108 86 0 
-108 91 0 
-109 -110 0 
-110 -111 -117 0 
-110 111 117 0 
-111 -112 -113 0 
-111 112 113 0 
-113 -114 -116 0 
-113 114 116 0 
-114 -115 0 
-116 101 0 
-116 103 0 
-117 118 121 0 
-118 119 120 0 
-12 -1 13 0 
-12 1 324 0 
-119 99 0 
-119 100 0 
-120 100 0 
-120 104 0 
-121 99 0 
-121 104 0 
-122 -123 0 
-123 -124 -130 0 
-123 124 130 0 
-124 -125 -126 0 
-124 125 126 0 
-126 -127 -129 0 
-126 127 129 0 
-127 -128 0 
-13 -11 14 0 
-13 11 37 0 
-129 114 0 
-129 116 0 
-130 131 134 0 
-131 132 133 0 
-132 112 0 
-132 113 0 
-133 113 0 
-133 117 0 
-134 112 0 
-134 117 0 
-135 -136 0 
-136 -137 -143 0 
-136 137 143 0 
-137 -138 -139 0 
-137 138 139 0 
-14 15 0 
-14 35 0 
-139 -140 -142 0 
-139 140 142 0 
-140 -141 0 
-142 127 0 
-142 129 0 
-143 144 147 0 
-144 145 146 0 
-145 125 0 
-145 126 0 
-146 126 0 
-146 130 0 
-147 125 0 
-147 130 0 
-148 -149 0 
-15 16 0 
-15 33 0 
-149 -150 -156 0 
-149 150 156 0 
-150 -151 -152 0 
-150 151 152 0 
-152 -153 -155 0 
-152 153 155 0 
-153 -154 0 
-155 140 0 
-155 142 0 
-156 157 160 0 
-157 158 159 0 
-158 138 0 
-158 139 0 
-16 17 0 
-16 31 0 
-159 139 0 
-159 143 0 
-160 138 0 
-160 143 0 
-161 -162 0 
-162 -163 -169 0 
-162 163 169 0 
-163 -164 -165 0 
-163 164 165 0 
-165 -166 -168 0 
-165 166 168 0 
-166 -167 0 
-168 153 0 
-168 155 0 
-17 18 0 
-17 29 0 
-169 170 173 0 
-170 171 172 0 
-171 151 0 
-171 152 0 
-172 152 0 
-172 156 0 
-173 151 0 
-173 156 0 
-174 -175 0 
-175 -176 -182 0 
-175 176 182 0 
-176 -177 -178 0 
-176 177 178 0 
-178 -179 -181 0 
-178 179 181 0 
-1 2 6 0 
-18 19 0 
-18 27 0 
-179 -180 0 
-181 166 0 
-181 168 0 
-182 183 186 0 
-183 184 185 0 
-184 164 0 
-184 165 0 
-185 165 0 
-185 169 0 
-186 164 0 
-186 169 0 
-187 -188 0 
-188 -189 -195 0 
-188 189 195 0 
-19 20 0 
-19 25 0 
-189 -190 -191 0 
-189 190 191 0 
-191 -192 -194 0 
-191 192 194 0 
-192 -193 0 
-194 179 0 
-194 181 0 
-195 196 199 0 
-196 197 198 0 
-197 177 0 
-197 178 0 
-198 178 0 
-198 182 0 
-20 21 0 
-20 23 0 
-199 177 0 
-199 182 0 
-200 -201 0 
-201 -202 -208 0 
-201 202 208 0 
-202 -203 -204 0 
-202 203 204 0 
-204 -205 -207 0 
-204 205 207 0 
-205 -206 0 
-207 192 0 
-207 194 0 
-208 209 212 0 
-21 22 0 
-209 210 211 0 
-210 190 0 
-210 191 0 
-211 191 0 
-211 195 0 
-212 190 0 
-212 195 0 
-213 -214 0 
-214 -215 -221 0 
-214 215 221 0 
-215 -216 -217 0 
-215 216 217 0 
-217 -218 -220 0 
-217 218 220 0 
-218 -219 0 
-220 205 0 
-220 207 0 
-221 222 225 0 
-222 223 224 0 
-223 203 0 
-223 204 0 
-224 204 0 
-224 208 0 
-225 203 0 
-225 208 0 
-226 -227 0 
-227 -228 -234 0 
-227 228 234 0 
-228 -229 -230 0 
-228 229 230 0 
-230 -231 -233 0 
-230 231 233 0 
-231 -232 0 
-233 218 0 
-233 220 0 
-234 235 238 0 
-235 236 237 0 
-236 216 0 
-236 217 0 
-237 217 0 
-237 221 0 
-238 216 0 
-238 221 0 
-239 -240 0 
-240 -241 -247 0 
-240 241 247 0 
-241 -242 -243 0 
-241 242 243 0 
-243 -244 -246 0 
-243 244 246 0 
-244 -245 0 
-246 231 0 
-246 233 0 
-247 248 251 0 
-248 249 250 0 
-249 229 0 
-249 230 0 
-250 230 0 
-250 234 0 
-251 229 0 
-251 234 0 
-252 -253 0 
-253 -254 -260 0 
-253 254 260 0 
-254 -255 -256 0 
-254 255 256 0 
-256 -257 -259 0 
-256 257 259 0 
-257 -258 0 
-23 24 0 
-259 244 0 
-259 246 0 
-260 261 264 0 
-261 262 263 0 
-262 242 0 
-262 243 0 
-263 243 0 
-263 247 0 
-264 242 0 
-264 247 0 
-265 -266 0 
-266 267 0 
-267 268 0 
-268 269 0 
-269 270 0 
-270 271 0 
-271 272 0 
-272 273 0 
-273 -274 0 
-275 276 0 
-275 316 0 
-276 277 0 
-276 311 0 
-277 278 0 
-277 306 0 
-278 279 0 
-278 301 0 
-2 -3 0 
-279 280 0 
-279 296 0 
-280 281 0 
-280 291 0 
-281 282 0 
-281 286 0 
-282 -22 283 0 
-282 -283 22 0 
-283 284 0 
-284 -285 0 
-286 -24 287 0 
-286 -287 24 0 
-287 -288 -290 0 
-287 288 290 0 
-288 -289 0 
-290 285 0 
-291 -292 26 0 
-291 -26 292 0 
-292 -293 -295 0 
-292 293 295 0 
-293 294 0 
-295 289 290 0 
-296 -297 28 0 
-296 -28 297 0 
-297 -298 -300 0 
-297 298 300 0 
-298 299 0 
-25 -26 0 
-300 294 0 
-300 295 0 
-301 -302 30 0 
-301 -30 302 0 
-302 -303 -305 0 
-302 303 305 0 
-303 304 0 
-305 299 0 
-305 300 0 
-306 -307 32 0 
-306 -32 307 0 
-307 -308 -310 0 
-307 308 310 0 
-308 -309 0 
-310 304 0 
-310 305 0 
-311 -312 34 0 
-311 -34 312 0 
-312 -313 -315 0 
-312 313 315 0 
-313 314 0 
-315 309 310 0 
-316 -317 36 0 
-316 -36 317 0 
-317 -318 -320 0 
-317 318 320 0 
-318 319 0 
-320 314 0 
-320 315 0 
-321 -322 324 0 
-321 322 370 0 
-322 -52 0 
-322 52 323 0 
-323 266 0 
-324 325 0 
-324 365 0 
-325 326 0 
-325 360 0 
-326 327 0 
-326 355 0 
-327 328 0 
-327 350 0 
-328 329 0 
-328 345 0 
-329 330 0 
-329 340 0 
-330 331 0 
-330 335 0 
-331 -22 332 0 
-331 -332 22 0 
-332 333 0 
-333 -334 0 
-335 -24 336 0 
-335 -336 24 0 
-336 -337 -339 0 
-336 337 339 0 
-337 -338 0 
-339 334 0 
-340 -26 341 0 
-340 -341 26 0 
-341 -342 -344 0 
-341 342 344 0 
-342 343 0 
-344 338 339 0 
-345 -346 28 0 
-345 -28 346 0 
-346 -347 -349 0 
-346 347 349 0 
-347 348 0 
-27 -28 0 
-349 343 0 
-349 344 0 
-350 -351 30 0 
-350 -30 351 0 
-351 -352 -354 0 
-351 352 354 0 
-352 353 0 
-354 348 0 
-354 349 0 
-355 -356 32 0 
-355 -32 356 0 
-356 -357 -359 0 
-356 357 359 0 
-357 -358 0 
-359 353 0 
-359 354 0 
-360 -361 34 0 
-360 -34 361 0 
-361 -362 -364 0 
-361 362 364 0 
-362 363 0 
-364 358 359 0 
-365 -366 36 0 
-365 -36 366 0 
-366 -367 -369 0 
-366 367 369 0 
-367 368 0 
-369 363 0 
-369 364 0 
-370 -371 275 0 
-370 371 324 0 
-371 52 0 
-372 -38 373 0 
-372 38 375 0 
-373 -41 12 0 
-373 41 374 0 
-374 -51 375 0 
-374 51 545 0 
-375 -1 376 0 
-375 1 482 0 
-376 -11 377 0 
-376 11 416 0 
-377 378 0 
-377 412 0 
-378 379 0 
-378 408 0 
-3 -4 5 0 
-3 -5 4 0 
-379 380 0 
-379 404 0 
-380 381 0 
-380 400 0 
-381 382 0 
-381 396 0 
-382 383 0 
-382 392 0 
-383 384 0 
-383 388 0 
-384 -22 385 0 
-384 -385 22 0 
-385 386 0 
-386 387 0 
-388 -24 389 0 
-388 -389 24 0 
-29 -30 0 
-389 390 0 
-390 391 0 
-392 -26 393 0 
-392 -393 26 0 
-393 394 0 
-394 395 0 
-396 -28 397 0 
-396 -397 28 0 
-397 398 0 
-398 399 0 
-400 -30 401 0 
-400 -401 30 0 
-401 402 0 
-402 403 0 
-404 -405 32 0 
-404 -32 405 0 
-405 406 0 
-406 407 0 
-408 -409 34 0 
-408 -34 409 0 
-409 410 0 
-410 411 0 
-412 -413 36 0 
-412 -36 413 0 
-413 414 0 
-414 415 0 
-416 -38 417 0 
-416 38 482 0 
-417 -41 377 0 
-417 41 418 0 
-418 -51 419 0 
-418 51 481 0 
-419 420 0 
-419 473 0 
-420 421 0 
-420 465 0 
-421 422 0 
-421 457 0 
-31 32 0 
-422 423 0 
-422 449 0 
-423 424 0 
-423 441 0 
-424 425 0 
-424 433 0 
-425 426 0 
-425 429 0 
-426 -22 427 0 
-426 -427 22 0 
-427 428 0 
-428 -285 -387 0 
-428 285 387 0 
-429 -24 430 0 
-429 -430 24 0 
-430 -431 -432 0 
-430 431 432 0 
-431 -289 -391 0 
-431 289 391 0 
-432 285 0 
-432 387 0 
-433 -26 434 0 
-433 -434 26 0 
-434 -435 -436 0 
-434 435 436 0 
-435 -294 -395 0 
-435 294 395 0 
-436 437 440 0 
-437 438 439 0 
-438 289 0 
-438 391 0 
-439 391 0 
-439 432 0 
-440 289 0 
-440 432 0 
-441 -28 442 0 
-441 -442 28 0 
-442 -443 -444 0 
-442 443 444 0 
-443 -299 -399 0 
-443 299 399 0 
-444 445 448 0 
-445 446 447 0 
-446 294 0 
-446 395 0 
-447 395 0 
-447 436 0 
-448 294 0 
-448 436 0 
-449 -30 450 0 
-449 -450 30 0 
-450 -451 -452 0 
-450 451 452 0 
-451 -304 -403 0 
-451 304 403 0 
-452 453 456 0 
-453 454 455 0 
-454 299 0 
-454 399 0 
-455 399 0 
-455 444 0 
-456 299 0 
-456 444 0 
-457 -32 458 0 
-457 -458 32 0 
-458 -459 -460 0 
-458 459 460 0 
-459 -309 -407 0 
-459 309 407 0 
-460 461 464 0 
-461 462 463 0 
-33 -34 0 
-462 304 0 
-462 403 0 
-463 403 0 
-463 452 0 
-464 304 0 
-464 452 0 
-465 -466 34 0 
-465 -34 466 0 
-466 -467 -468 0 
-466 467 468 0 
-467 -314 -411 0 
-467 314 411 0 
-468 469 472 0 
-469 470 471 0 
-470 309 0 
-470 407 0 
-471 407 0 
-471 460 0 
-472 309 0 
-472 460 0 
-473 -474 36 0 
-473 -36 474 0 
-474 -475 -476 0 
-474 475 476 0 
-475 -319 -415 0 
-475 319 415 0 
-476 477 480 0 
-477 478 479 0 
-478 314 0 
-478 411 0 
-479 411 0 
-479 468 0 
-480 314 0 
-480 468 0 
-481 -322 482 0 
-481 322 544 0 
-482 483 0 
-482 536 0 
-483 484 0 
-483 528 0 
-484 485 0 
-484 520 0 
-485 486 0 
-485 512 0 
-486 487 0 
-486 504 0 
-487 488 0 
-487 496 0 
-488 489 0 
-488 492 0 
-489 -22 490 0 
-489 -490 22 0 
-490 491 0 
-491 -334 -387 0 
-491 334 387 0 
-492 -24 493 0 
-492 -493 24 0 
-493 -494 -495 0 
-493 494 495 0 
-494 -338 -391 0 
-494 338 391 0 
-495 334 0 
-495 387 0 
-496 -26 497 0 
-496 -497 26 0 
-497 -498 -499 0 
-497 498 499 0 
-498 -343 -395 0 
-498 343 395 0 
-499 500 503 0 
-500 501 502 0 
-501 338 0 
-501 391 0 
-35 -36 0 
-502 391 0 
-502 495 0 
-503 338 0 
-503 495 0 
-504 -28 505 0 
-504 -505 28 0 
-505 -506 -507 0 
-505 506 507 0 
-506 -348 -399 0 
-506 348 399 0 
-507 508 511 0 
-508 509 510 0 
-509 343 0 
-509 395 0 
-510 395 0 
-510 499 0 
-511 343 0 
-511 499 0 
-512 -30 513 0 
-512 -513 30 0 
-513 -514 -515 0 
-513 514 515 0 
-514 -353 -403 0 
-514 353 403 0 
-515 516 519 0 
-516 517 518 0 
-517 348 0 
-517 399 0 
-518 399 0 
-518 507 0 
-519 348 0 
-519 507 0 
-520 -32 521 0 
-520 -521 32 0 
-521 -522 -523 0 
-521 522 523 0 
-522 -358 -407 0 
-522 358 407 0 
-523 524 527 0 
-524 525 526 0 
-525 353 0 
-525 403 0 
-526 403 0 
-526 515 0 
-527 353 0 
-527 515 0 
-528 -34 529 0 
-528 -529 34 0 
-529 -530 -531 0 
-529 530 531 0 
-530 -363 -411 0 
-530 363 411 0 
-531 532 535 0 
-532 533 534 0 
-533 358 0 
-533 407 0 
-534 407 0 
-534 523 0 
-535 358 0 
-535 523 0 
-536 -36 537 0 
-536 -537 36 0 
-537 -538 -539 0 
-537 538 539 0 
-538 -368 -415 0 
-538 368 415 0 
-539 540 543 0 
-540 541 542 0 
-541 363 0 
-541 411 0 
-37 -38 40 0 
-37 38 324 0 
-542 411 0 
-542 531 0 
-543 363 0 
-543 531 0 
-544 -371 419 0 
-544 371 482 0 
-545 -322 546 0 
-545 322 702 0 
-546 -1 547 0 
-546 1 639 0 
-547 -11 548 0 
-547 11 579 0 
-548 549 0 
-548 576 0 
-549 550 0 
-549 573 0 
-550 551 0 
-550 570 0 
-551 552 0 
-551 567 0 
-38 2 0 
-38 39 0 
-552 553 0 
-552 564 0 
-553 554 0 
-553 561 0 
-554 555 0 
-554 558 0 
-555 -22 556 0 
-555 -556 22 0 
-556 557 0 
-557 285 0 
-558 -24 559 0 
-558 -559 24 0 
-559 560 0 
-560 289 0 
-39 4 0 
-561 -26 562 0 
-561 -562 26 0 
-562 563 0 
-563 294 0 
-564 -28 565 0 
-564 -565 28 0 
-565 566 0 
-566 299 0 
-567 -30 568 0 
-567 -568 30 0 
-568 569 0 
-40 -41 14 0 
-40 41 50 0 
-569 304 0 
-570 -32 571 0 
-570 -571 32 0 
-571 572 0 
-572 309 0 
-573 -34 574 0 
-573 -574 34 0 
-574 575 0 
-575 314 0 
-41 42 0 
-576 -36 577 0 
-576 -577 36 0 
-577 578 0 
-578 319 0 
-579 -38 580 0 
-579 38 639 0 
-580 -41 548 0 
-580 41 581 0 
-581 -51 582 0 
-581 51 638 0 
-582 583 0 
-582 631 0 
-583 584 0 
-583 624 0 
-584 585 0 
-584 617 0 
-42 43 0 
-585 586 0 
-585 610 0 
-586 587 0 
-586 603 0 
-587 588 0 
-587 596 0 
-588 589 0 
-588 592 0 
-589 -22 590 0 
-589 -590 22 0 
-590 591 0 
-285 -591 0 
285 -591 0 
-592 -24 593 0 
-592 -593 24 0 
-593 -594 -595 0 
-593 594 595 0 
-289 -594 0 
-594 289 0 
-43 44 0 
-595 285 0 
-596 -26 597 0 
-596 -597 26 0 
-597 -598 -599 0 
-597 598 599 0 
-294 -598 0 
294 -598 0 
-599 600 602 0 
-600 601 602 0 
-601 289 0 
-602 289 0 
-602 595 0 
-603 -28 604 0 
-603 -604 28 0 
-604 -605 -606 0 
-604 605 606 0 
-44 45 0 
-605 -299 0 
-605 299 0 
-606 607 609 0 
-607 608 609 0 
-608 294 0 
-609 294 0 
-609 599 0 
-610 -30 611 0 
-610 -611 30 0 
-611 -612 -613 0 
-611 612 613 0 
-612 -304 0 
-612 304 0 
-613 614 616 0 
-614 615 616 0 
-45 46 0 
-615 299 0 
-616 299 0 
-616 606 0 
-617 -32 618 0 
-617 -618 32 0 
-618 -619 -620 0 
-618 619 620 0 
-619 -309 0 
-619 309 0 
-620 621 623 0 
-621 622 623 0 
-622 304 0 
-623 304 0 
-623 613 0 
-624 -34 625 0 
-624 -625 34 0 
-46 47 0 
-625 -626 -627 0 
-625 626 627 0 
-314 -626 0 
-626 314 0 
-627 628 630 0 
-628 629 630 0 
-629 309 0 
-630 309 0 
-630 620 0 
-631 -36 632 0 
-631 -632 36 0 
-632 -633 -634 0 
-632 633 634 0 
-319 -633 0 
-633 319 0 
-634 635 637 0 
-47 48 0 
-635 636 637 0 
-636 314 0 
-637 314 0 
-637 627 0 
-638 -322 639 0 
-638 322 701 0 
-639 640 0 
-639 693 0 
-640 641 0 
-640 685 0 
-641 642 0 
-641 677 0 
-642 643 0 
-642 669 0 
-643 644 0 
-643 661 0 
-644 645 0 
-644 653 0 
-48 -49 0 
-645 646 0 
-645 649 0 
-646 -22 647 0 
-646 -647 22 0 
-647 648 0 
-648 -334 -285 0 
-648 334 285 0 
-649 -24 650 0 
-649 -650 24 0 
-650 -651 -652 0 
-650 651 652 0 
-651 -338 -289 0 
-651 338 289 0 
-652 285 0 
-652 334 0 
-653 -26 654 0 
-653 -654 26 0 
-654 -655 -656 0 
-654 655 656 0 
-655 -343 -294 0 
-655 343 294 0 
-656 657 660 0 
-657 658 659 0 
-658 289 0 
-658 338 0 
-659 289 0 
-659 652 0 
-660 338 0 
-660 652 0 
-661 -28 662 0 
-661 -662 28 0 
-662 -663 -664 0 
-662 663 664 0 
-663 -348 -299 0 
-663 348 299 0 
-664 665 668 0 
-6 -7 0 
-665 666 667 0 
-666 294 0 
-666 343 0 
-667 294 0 
-667 656 0 
-668 343 0 
-668 656 0 
-669 -30 670 0 
-669 -670 30 0 
-670 -671 -672 0 
-670 671 672 0 
-671 -353 -304 0 
-671 353 304 0 
-672 673 676 0 
-673 674 675 0 
-674 299 0 
-674 348 0 
-50 -51 275 0 
-50 51 321 0 
-675 299 0 
-675 664 0 
-676 348 0 
-676 664 0 
-677 -32 678 0 
-677 -678 32 0 
-678 -679 -680 0 
-678 679 680 0 
-679 -358 -309 0 
-679 358 309 0 
-680 681 684 0 
-681 682 683 0 
-682 304 0 
-682 353 0 
-683 304 0 
-683 672 0 
-684 353 0 
-684 672 0 
-51 -52 0 
-51 52 265 0 
-685 -34 686 0 
-685 -686 34 0 
-686 -687 -688 0 
-686 687 688 0 
-687 -363 -314 0 
-687 363 314 0 
-688 689 692 0 
-689 690 691 0 
-690 309 0 
-690 358 0 
-691 309 0 
-691 680 0 
-692 358 0 
-692 680 0 
-693 -36 694 0 
-693 -694 36 0 
-694 -695 -696 0 
-694 695 696 0 
-52 252 0 
-52 53 0 
-695 -368 -319 0 
-695 368 319 0 
-696 697 700 0 
-697 698 699 0 
-698 314 0 
-698 363 0 
-699 314 0 
-699 688 0 
-700 363 0 
-700 688 0 
-701 -371 582 0 
-701 371 639 0 
-702 -371 546 0 
-702 371 375 0 
-53 239 0 
-53 54 0 
-54 226 0 
-54 55 0 
-55 213 0 
-55 56 0 
-56 200 0 
-56 57 0 
-57 187 0 
-57 58 0 
-58 174 0 
-58 59 0 
-7 -9 8 0 
-7 -8 9 0 
-59 161 0 
-59 60 0 
-60 148 0 
-60 61 0 
-61 135 0 
-61 62 0 
-62 122 0 
-62 63 0 
-63 109 0 
-63 64 0 
-64 96 0 
-64 65 0 
-65 83 0 
-65 66 0 
-66 67 0 
-66 74 0 
-67 -68 0 
-68 69 0 
-69 -70 -71 0 
-69 70 71 0 
-71 -72 0 
-72 -73 0 
-74 -75 0 
-75 -76 -82 0 
-75 76 82 0 
-76 -77 -78 0 
-76 77 78 0 
-78 -79 -81 0 
-78 79 81 0 
79 80 0 
81 -72 0 
82 -70 -71 0 
83 84 0 
84 -85 91 0 
84 -91 85 0 
85 -86 87 0 
85 -87 86 0 
87 -88 90 0 
87 -90 88 0 
88 89 0 
10 -11 -12 0 
10 -12 -372 0 
10 11 -372 0 
90 -79 -81 0 
91 -92 0 
91 -95 0 
92 -93 0 
92 -94 0 
93 -77 -78 0 
94 -78 -82 0 
95 -77 -82 0 
96 97 0 
97 -98 104 0 
97 -104 98 0 
98 -99 100 0 
98 -100 99 0 
11 -8 0 
100 -101 103 0 
100 -103 101 0 
101 102 0 
103 -88 -90 0 
104 -105 0 
104 -108 0 
105 -106 0 
105 -107 0 
106 -86 -87 0 
107 -87 -91 0 
108 -86 -91 0 
109 110 0 
110 -111 117 0 
110 -117 111 0 
111 -112 113 0 
111 -113 112 0 
113 -114 116 0 
113 -116 114 0 
114 115 0 
116 -101 -103 0 
117 -118 0 
117 -121 0 
118 -119 0 
118 -120 0 
12 -13 -324 0 
12 -1 -13 0 
12 1 -324 0 
119 -99 -100 0 
120 -100 -104 0 
121 -99 -104 0 
122 123 0 
123 -124 130 0 
123 -130 124 0 
124 -125 126 0 
124 -126 125 0 
126 -127 129 0 
126 -129 127 0 
127 128 0 
13 -11 -14 0 
13 -14 -37 0 
13 11 -37 0 
129 -114 -116 0 
130 -131 0 
130 -134 0 
131 -132 0 
131 -133 0 
132 -112 -113 0 
133 -113 -117 0 
134 -112 -117 0 
135 136 0 
136 -137 143 0 
136 -143 137 0 
137 -138 139 0 
137 -139 138 0 
14 -15 -35 0 
139 -140 142 0 
139 -142 140 0 
140 141 0 
142 -127 -129 0 
143 -144 0 
143 -147 0 
144 -145 0 
144 -146 0 
145 -125 -126 0 
146 -126 -130 0 
147 -125 -130 0 
148 149 0 
15 -16 -33 0 
149 -150 156 0 
149 -156 150 0 
150 -151 152 0 
150 -152 151 0 
152 -153 155 0 
152 -155 153 0 
153 154 0 
155 -140 -142 0 
156 -157 0 
156 -160 0 
157 -158 0 
157 -159 0 
158 -138 -139 0 
16 -17 -31 0 
159 -139 -143 0 
160 -138 -143 0 
161 162 0 
162 -163 169 0 
162 -169 163 0 
163 -164 165 0 
163 -165 164 0 
165 -166 168 0 
165 -168 166 0 
166 167 0 
168 -153 -155 0 
17 -18 -29 0 
169 -170 0 
169 -173 0 
170 -171 0 
170 -172 0 
171 -151 -152 0 
172 -152 -156 0 
173 -151 -156 0 
174 175 0 
175 -176 182 0 
175 -182 176 0 
176 -177 178 0 
176 -178 177 0 
178 -179 181 0 
178 -181 179 0 
1 -2 0 
1 -6 0 
18 -19 -27 0 
179 180 0 
181 -166 -168 0 
182 -183 0 
182 -186 0 
183 -184 0 
183 -185 0 
184 -164 -165 0 
185 -165 -169 0 
186 -164 -169 0 
187 188 0 
188 -189 195 0 
188 -195 189 0 
19 -20 -25 0 
189 -190 191 0 
189 -191 190 0 
191 -192 194 0 
191 -194 192 0 
192 193 0 
194 -179 -181 0 
195 -196 0 
195 -199 0 
196 -197 0 
196 -198 0 
197 -177 -178 0 
198 -178 -182 0 
20 -21 -23 0 
199 -177 -182 0 
200 201 0 
201 -202 208 0 
201 -208 202 0 
202 -203 204 0 
202 -204 203 0 
204 -205 207 0 
204 -207 205 0 
205 206 0 
207 -192 -194 0 
208 -209 0 
208 -212 0 
21 -22 0 
209 -210 0 
209 -211 0 
210 -190 -191 0 
211 -191 -195 0 
212 -190 -195 0 
213 214 0 
214 -215 221 0 
214 -221 215 0 
215 -216 217 0 
215 -217 216 0 
217 -218 220 0 
217 -220 218 0 
218 219 0 
220 -205 -207 0 
221 -222 0 
221 -225 0 
222 -223 0 
222 -224 0 
223 -203 -204 0 
224 -204 -208 0 
225 -203 -208 0 
226 227 0 
227 -228 234 0 
227 -234 228 0 
228 -229 230 0 
228 -230 229 0 
230 -231 233 0 
230 -233 231 0 
231 232 0 
233 -218 -220 0 
234 -235 0 
234 -238 0 
235 -236 0 
235 -237 0 
236 -216 -217 0 
237 -217 -221 0 
238 -216 -221 0 
239 240 0 
240 -241 247 0 
240 -247 241 0 
241 -242 243 0 
241 -243 242 0 
243 -244 246 0 
243 -246 244 0 
244 245 0 
246 -231 -233 0 
247 -248 0 
247 -251 0 
248 -249 0 
248 -250 0 
249 -229 -230 0 
250 -230 -234 0 
251 -229 -234 0 
252 253 0 
253 -254 260 0 
253 -260 254 0 
254 -255 256 0 
254 -256 255 0 
256 -257 259 0 
256 -259 257 0 
257 258 0 
23 -24 0 
259 -244 -246 0 
260 -261 0 
260 -264 0 
261 -262 0 
261 -263 0 
262 -242 -243 0 
263 -243 -247 0 
264 -242 -247 0 
265 266 0 
266 -267 0 
267 -268 0 
268 -269 0 
269 -270 0 
270 -271 0 
271 -272 0 
272 -273 0 
273 274 0 
275 -276 -316 0 
276 -277 -311 0 
277 -278 -306 0 
278 -279 -301 0 
2 3 0 
279 -280 -296 0 
280 -281 -291 0 
281 -282 -286 0 
282 -22 -283 0 
282 22 283 0 
283 -284 0 
284 285 0 
286 -24 -287 0 
286 24 287 0 
287 -288 290 0 
287 -290 288 0 
288 289 0 
290 -285 0 
291 -26 -292 0 
291 26 292 0 
292 -293 295 0 
292 -295 293 0 
293 -294 0 
295 -289 0 
295 -290 0 
296 -28 -297 0 
296 28 297 0 
297 -298 300 0 
297 -300 298 0 
298 -299 0 
25 26 0 
300 -294 -295 0 
301 -30 -302 0 
301 30 302 0 
302 -303 305 0 
302 -305 303 0 
303 -304 0 
305 -299 -300 0 
306 -32 -307 0 
306 32 307 0 
307 -308 310 0 
307 -310 308 0 
308 309 0 
310 -304 -305 0 
311 -34 -312 0 
311 34 312 0 
312 -313 315 0 
312 -315 313 0 
313 -314 0 
315 -309 0 
315 -310 0 
316 -36 -317 0 
316 36 317 0 
317 -318 320 0 
317 -320 318 0 
318 -319 0 
320 -314 -315 0 
321 -322 -324 0 
321 -324 -370 0 
321 322 -370 0 
322 52 -323 0 
323 -266 0 
324 -325 -365 0 
325 -326 -360 0 
326 -327 -355 0 
327 -328 -350 0 
328 -329 -345 0 
329 -330 -340 0 
330 -331 -335 0 
331 -22 -332 0 
331 22 332 0 
332 -333 0 
333 334 0 
335 -24 -336 0 
335 24 336 0 
336 -337 339 0 
336 -339 337 0 
337 338 0 
339 -334 0 
340 -26 -341 0 
340 26 341 0 
341 -342 344 0 
341 -344 342 0 
342 -343 0 
344 -338 0 
344 -339 0 
345 -28 -346 0 
345 28 346 0 
346 -347 349 0 
346 -349 347 0 
347 -348 0 
27 28 0 
349 -343 -344 0 
350 -30 -351 0 
350 30 351 0 
351 -352 354 0 
351 -354 352 0 
352 -353 0 
354 -348 -349 0 
355 -32 -356 0 
355 32 356 0 
356 -357 359 0 
356 -359 357 0 
357 358 0 
359 -353 -354 0 
360 -34 -361 0 
360 34 361 0 
361 -362 364 0 
361 -364 362 0 
362 -363 0 
364 -358 0 
364 -359 0 
365 -36 -366 0 
365 36 366 0 
366 -367 369 0 
366 -369 367 0 
367 -368 0 
369 -363 -364 0 
370 -275 -324 0 
370 -371 -275 0 
370 371 -324 0 
371 -52 0 
372 -373 -375 0 
372 -38 -373 0 
372 38 -375 0 
373 -12 -374 0 
373 -41 -12 0 
373 41 -374 0 
374 -375 -545 0 
374 -51 -375 0 
374 51 -545 0 
375 -1 -376 0 
375 -376 -482 0 
375 1 -482 0 
376 -11 -377 0 
376 -377 -416 0 
376 11 -416 0 
377 -378 -412 0 
378 -379 -408 0 
3 -4 -5 0 
3 4 5 0 
379 -380 -404 0 
380 -381 -400 0 
381 -382 -396 0 
382 -383 -392 0 
383 -384 -388 0 
384 -22 -385 0 
384 22 385 0 
385 -386 0 
386 -387 0 
388 -24 -389 0 
388 24 389 0 
29 30 0 
389 -390 0 
390 -391 0 
392 -26 -393 0 
392 26 393 0 
393 -394 0 
394 -395 0 
396 -28 -397 0 
396 28 397 0 
397 -398 0 
398 -399 0 
400 -30 -401 0 
400 30 401 0 
401 -402 0 
402 -403 0 
404 -32 -405 0 
404 32 405 0 
405 -406 0 
406 -407 0 
408 -34 -409 0 
408 34 409 0 
409 -410 0 
410 -411 0 
412 -36 -413 0 
412 36 413 0 
413 -414 0 
414 -415 0 
416 -417 -482 0 
416 -38 -417 0 
416 38 -482 0 
417 -377 -418 0 
417 -41 -377 0 
417 41 -418 0 
418 -419 -481 0 
418 -51 -419 0 
418 51 -481 0 
419 -420 -473 0 
420 -421 -465 0 
421 -422 -457 0 
31 -32 0 
422 -423 -449 0 
423 -424 -441 0 
424 -425 -433 0 
425 -426 -429 0 
426 -22 -427 0 
426 22 427 0 
427 -428 0 
428 -285 387 0 
428 -387 285 0 
429 -24 -430 0 
429 24 430 0 
430 -431 432 0 
430 -432 431 0 
431 -289 391 0 
431 -391 289 0 
432 -285 -387 0 
433 -26 -434 0 
433 26 434 0 
434 -435 436 0 
434 -436 435 0 
435 -294 395 0 
435 -395 294 0 
436 -437 0 
436 -440 0 
437 -438 0 
437 -439 0 
438 -289 -391 0 
439 -391 -432 0 
440 -289 -432 0 
441 -28 -442 0 
441 28 442 0 
442 -443 444 0 
442 -444 443 0 
443 -299 399 0 
443 -399 299 0 
444 -445 0 
444 -448 0 
445 -446 0 
445 -447 0 
446 -294 -395 0 
447 -395 -436 0 
448 -294 -436 0 
449 -30 -450 0 
449 30 450 0 
450 -451 452 0 
450 -452 451 0 
451 -304 403 0 
451 -403 304 0 
452 -453 0 
452 -456 0 
453 -454 0 
453 -455 0 
454 -299 -399 0 
455 -399 -444 0 
456 -299 -444 0 
457 -32 -458 0 
457 32 458 0 
458 -459 460 0 
458 -460 459 0 
459 -309 407 0 
459 -407 309 0 
460 -461 0 
460 -464 0 
461 -462 0 
461 -463 0 
33 34 0 
462 -304 -403 0 
463 -403 -452 0 
464 -304 -452 0 
465 -34 -466 0 
465 34 466 0 
466 -467 468 0 
466 -468 467 0 
467 -314 411 0 
467 -411 314 0 
468 -469 0 
468 -472 0 
469 -470 0 
469 -471 0 
470 -309 -407 0 
471 -407 -460 0 
472 -309 -460 0 
473 -36 -474 0 
473 36 474 0 
474 -475 476 0 
474 -476 475 0 
475 -319 415 0 
475 -415 319 0 
476 -477 0 
476 -480 0 
477 -478 0 
477 -479 0 
478 -314 -411 0 
479 -411 -468 0 
480 -314 -468 0 
481 -322 -482 0 
481 -482 -544 0 
481 322 -544 0 
482 -483 -536 0 
483 -484 -528 0 
484 -485 -520 0 
485 -486 -512 0 
486 -487 -504 0 
487 -488 -496 0 
488 -489 -492 0 
489 -22 -490 0 
489 22 490 0 
490 -491 0 
491 -334 387 0 
491 -387 334 0 
492 -24 -493 0 
492 24 493 0 
493 -494 495 0 
493 -495 494 0 
494 -338 391 0 
494 -391 338 0 
495 -334 -387 0 
496 -26 -497 0 
496 26 497 0 
497 -498 499 0 
497 -499 498 0 
498 -343 395 0 
498 -395 343 0 
499 -500 0 
499 -503 0 
500 -501 0 
500 -502 0 
501 -338 -391 0 
35 36 0 
502 -391 -495 0 
503 -338 -495 0 
504 -28 -505 0 
504 28 505 0 
505 -506 507 0 
505 -507 506 0 
506 -348 399 0 
506 -399 348 0 
507 -508 0 
507 -511 0 
508 -509 0 
508 -510 0 
509 -343 -395 0 
510 -395 -499 0 
511 -343 -499 0 
512 -30 -513 0 
512 30 513 0 
513 -514 515 0 
513 -515 514 0 
514 -353 403 0 
514 -403 353 0 
515 -516 0 
515 -519 0 
516 -517 0 
516 -518 0 
517 -348 -399 0 
518 -399 -507 0 
519 -348 -507 0 
520 -32 -521 0 
520 32 521 0 
521 -522 523 0 
521 -523 522 0 
522 -358 407 0 
522 -407 358 0 
523 -524 0 
523 -527 0 
524 -525 0 
524 -526 0 
525 -353 -403 0 
526 -403 -515 0 
527 -353 -515 0 
528 -34 -529 0 
528 34 529 0 
529 -530 531 0 
529 -531 530 0 
530 -363 411 0 
530 -411 363 0 
531 -532 0 
531 -535 0 
532 -533 0 
532 -534 0 
533 -358 -407 0 
534 -407 -523 0 
535 -358 -523 0 
536 -36 -537 0 
536 36 537 0 
537 -538 539 0 
537 -539 538 0 
538 -368 415 0 
538 -415 368 0 
539 -540 0 
539 -543 0 
540 -541 0 
540 -542 0 
541 -363 -411 0 
37 -38 -40 0 
37 -40 -324 0 
37 38 -324 0 
542 -411 -531 0 
543 -363 -531 0 
544 -371 -419 0 
544 -419 -482 0 
544 371 -482 0 
545 -322 -546 0 
545 -546 -702 0 
545 322 -702 0 
546 -1 -547 0 
546 -547 -639 0 
546 1 -639 0 
547 -11 -548 0 
547 -548 -579 0 
547 11 -579 0 
548 -549 -576 0 
549 -550 -573 0 
550 -551 -570 0 
551 -552 -567 0 
38 -2 -39 0 
552 -553 -564 0 
553 -554 -561 0 
554 -555 -558 0 
555 -22 -556 0 
555 22 556 0 
556 -557 0 
557 -285 0 
558 -24 -559 0 
558 24 559 0 
559 -560 0 
560 -289 0 
39 -4 0 
561 -26 -562 0 
561 26 562 0 
562 -563 0 
563 -294 0 
564 -28 -565 0 
564 28 565 0 
565 -566 0 
566 -299 0 
567 -30 -568 0 
567 30 568 0 
568 -569 0 
40 -14 -50 0 
40 -41 -14 0 
40 41 -50 0 
569 -304 0 
570 -32 -571 0 
570 32 571 0 
571 -572 0 
572 -309 0 
573 -34 -574 0 
573 34 574 0 
574 -575 0 
575 -314 0 
41 -42 0 
576 -36 -577 0 
576 36 577 0 
577 -578 0 
578 -319 0 
579 -38 -580 0 
579 -580 -639 0 
579 38 -639 0 
580 -548 -581 0 
580 -41 -548 0 
580 41 -581 0 
581 -582 -638 0 
581 -51 -582 0 
581 51 -638 0 
582 -583 -631 0 
583 -584 -624 0 
584 -585 -617 0 
42 -43 0 
585 -586 -610 0 
586 -587 -603 0 
587 -588 -596 0 
588 -589 -592 0 
589 -22 -590 0 
589 22 590 0 
590 -591 0 
592 -24 -593 0 
592 24 593 0 
593 -594 595 0 
593 -595 594 0 
43 -44 0 
-285 595 0 
596 -26 -597 0 
596 26 597 0 
597 -598 599 0 
597 -599 598 0 
599 -600 0 
599 -602 0 
600 -601 0 
600 -602 0 
-289 601 0 
602 -289 -595 0 
603 -28 -604 0 
603 28 604 0 
604 -605 606 0 
604 -606 605 0 
44 -45 0 
606 -607 0 
606 -609 0 
607 -608 0 
607 -609 0 
608 -294 0 
609 -294 -599 0 
610 -30 -611 0 
610 30 611 0 
611 -612 613 0 
611 -613 612 0 
613 -614 0 
613 -616 0 
614 -615 0 
614 -616 0 
45 -46 0 
-299 615 0 
616 -299 -606 0 
617 -32 -618 0 
617 32 618 0 
618 -619 620 0 
618 -620 619 0 
620 -621 0 
620 -623 0 
621 -622 0 
621 -623 0 
622 -304 0 
623 -304 -613 0 
624 -34 -625 0 
624 34 625 0 
46 -47 0 
625 -626 627 0 
625 -627 626 0 
627 -628 0 
627 -630 0 
628 -629 0 
628 -630 0 
629 -309 0 
630 -309 -620 0 
631 -36 -632 0 
631 36 632 0 
632 -633 634 0 
632 -634 633 0 
634 -635 0 
634 -637 0 
47 -48 0 
635 -636 0 
635 -637 0 
-314 636 0 
637 -314 -627 0 
638 -322 -639 0 
638 -639 -701 0 
638 322 -701 0 
639 -640 -693 0 
640 -641 -685 0 
641 -642 -677 0 
642 -643 -669 0 
643 -644 -661 0 
644 -645 -653 0 
48 49 0 
645 -646 -649 0 
646 -22 -647 0 
646 22 647 0 
647 -648 0 
648 -285 334 0 
648 -334 285 0 
649 -24 -650 0 
649 24 650 0 
650 -651 652 0 
650 -652 651 0 
651 -289 338 0 
651 -338 289 0 
652 -334 -285 0 
653 -26 -654 0 
653 26 654 0 
654 -655 656 0 
654 -656 655 0 
655 -294 343 0 
655 -343 294 0 
656 -657 0 
656 -660 0 
657 -658 0 
657 -659 0 
658 -338 -289 0 
659 -289 -652 0 
660 -338 -652 0 
661 -28 -662 0 
661 28 662 0 
662 -663 664 0 
662 -664 663 0 
663 -299 348 0 
663 -348 299 0 
664 -665 0 
664 -668 0 
6 7 0 
665 -666 0 
665 -667 0 
666 -343 -294 0 
667 -294 -656 0 
668 -343 -656 0 
669 -30 -670 0 
669 30 670 0 
670 -671 672 0 
670 -672 671 0 
671 -304 353 0 
671 -353 304 0 
672 -673 0 
672 -676 0 
673 -674 0 
673 -675 0 
674 -348 -299 0 
50 -275 -321 0 
50 -51 -275 0 
50 51 -321 0 
675 -299 -664 0 
676 -348 -664 0 
677 -32 -678 0 
677 32 678 0 
678 -679 680 0 
678 -680 679 0 
679 -309 358 0 
679 -358 309 0 
680 -681 0 
680 -684 0 
681 -682 0 
681 -683 0 
682 -353 -304 0 
683 -304 -672 0 
684 -353 -672 0 
51 52 -265 0 
685 -34 -686 0 
685 34 686 0 
686 -687 688 0 
686 -688 687 0 
687 -314 363 0 
687 -363 314 0 
688 -689 0 
688 -692 0 
689 -690 0 
689 -691 0 
690 -358 -309 0 
691 -309 -680 0 
692 -358 -680 0 
693 -36 -694 0 
693 36 694 0 
694 -695 696 0 
694 -696 695 0 
52 -53 -252 0 
695 -319 368 0 
695 -368 319 0 
696 -697 0 
696 -700 0 
697 -698 0 
697 -699 0 
698 -363 -314 0 
699 -314 -688 0 
700 -363 -688 0 
701 -371 -582 0 
701 -582 -639 0 
701 371 -639 0 
702 -371 -546 0 
702 -546 -375 0 
702 371 -375 0 
53 -54 -239 0 
54 -55 -226 0 
55 -56 -213 0 
56 -57 -200 0 
57 -58 -187 0 
58 -59 -174 0 
7 -8 -9 0 
7 8 9 0 
59 -60 -161 0 
60 -61 -148 0 
61 -62 -135 0 
62 -63 -122 0 
63 -64 -109 0 
64 -65 -96 0 
65 -66 -83 0 
66 -67 -74 0 
67 68 0 
68 -69 0 
69 -70 71 0 
69 -71 70 0 
71 72 0 
72 73 0 
74 75 0 
75 -82 76 0 
75 -76 82 0 
76 -77 78 0 
76 -78 77 0 
78 -79 81 0 
78 -81 79 0 
